20J6M/DAT/20J6MNNL-19.dat
20 6
30.7922 30.7922
27.7028 27.7028
18.7419 18.7419
35.9273 35.9273
24.3223 24.3223
28.301 28.301
31.4335 31.4335
23.9595 23.9595
19.0076 19.0076
24.4363 24.4363
22.2731 22.2731
30.3152 30.3152
11.7519 11.7519
32.5287 32.5287
19.9913 19.9913
27.3849 27.3849
30.0491 30.0491
23.6531 23.6531
22.3322 22.3322
21.4668 21.4668
506.3707