20J6M/SOL/20J6MNNL-19.sol
solution status: optimal solution found
objective value:                     84.3951166666667
x#1#2                               0.134741373897719 	(obj:0)
x#1#5                               0.865258626102281 	(obj:0)
x#2#5                                               1 	(obj:0)
x#3#3                                               1 	(obj:0)
x#4#2                               0.431270463779169 	(obj:0)
x#4#6                               0.568729536220831 	(obj:0)
x#5#1                               0.403452113218459 	(obj:0)
x#5#4                               0.596547886781541 	(obj:0)
x#6#2                                               1 	(obj:0)
x#7#6                                               1 	(obj:0)
x#8#4                                               1 	(obj:0)
x#9#3                                               1 	(obj:0)
x#10#1                                              1 	(obj:0)
x#11#4                                              1 	(obj:0)
x#12#2                                              1 	(obj:0)
x#13#3                                              1 	(obj:0)
x#14#6                                              1 	(obj:0)
x#15#3                                              1 	(obj:0)
x#16#1                                0.7759513454495 	(obj:0)
x#16#2                                0.2240486545505 	(obj:0)
x#17#5                                              1 	(obj:0)
x#18#4                                              1 	(obj:0)
x#19#1                                              1 	(obj:0)
x#20#1                              0.305792355326985 	(obj:0)
x#20#3                              0.694207644673015 	(obj:0)
z                                    84.3951166666667 	(obj:1)
